p cnf 13 13
11 -12 13 14 15 16 -17 -18 -19 110 111 -112 113 0
-11 12 -13 14 -15 -16 17 18 19 110 -111 112 113 0
11 -12 13 -14 15 -16 -17 18 -19 110 111 -112 113 0
11 12 -13 14 15 16 -17 18 19 110 111 112 -113 0
11 -12 13 14 15 16 -17 18 -19 -110 111 112 113 0
11 -12 -13 14 15 16 17 -18 -19 -110 -111 112 113 0
-11 12 -13 -14 -15 16 17 18 19 110 111 -112 113 0
-11 12 13 14 15 -16 17 18 -19 110 111 112 113 0
-11 12 -13 14 -15 -16 17 -18 19 110 111 112 113 0
11 12 13 14 -15 -16 17 18 19 110 111 112 -113 0
11 -12 13 14 15 -16 17 18 19 110 111 112 113 0
-11 12 -13 14 15 16 -17 18 19 110 111 112 -113 0
11 12 13 -14 15 16 17 18 19 -110 111 -112 113 0
